                                        
   1.00000000000000     
     8.5030298233000003    0.0000000000000000    0.0000000000000000
    -4.2515149117000002    7.3638398361000004    0.0000000000000000
     0.0000000000000000    0.0000000000000000   20.8143005370999994
   Al   Ti   Li   O    P 
     2    10     8    72    18
Direct
  0.0013292250259629  0.0021724425671245  0.1425909846954679
  0.0013258283013841  0.0030182999224379  0.3583102327624428
  0.9984289107172042  0.0003624838385048  0.8618460481809210
  0.0012946189129664  0.9966542606157098  0.6405059946009966
  0.6640282415260921  0.3323411978638224  0.4703064501421101
  0.6646097616317023  0.3314632232169201  0.6951209089599327
  0.6637032824657441  0.3294108497156318  0.1934933611065021
  0.6671477629120359  0.3347853957444695  0.9776599313802905
  0.3321703458253444  0.6685373147739913  0.8076375333602231
  0.3336884180705796  0.6698463002900417  0.0277865739274417
  0.3274010694225564  0.6593505826659571  0.5220866605012405
  0.3384865184713909  0.6660945133054097  0.3053118442570648
  0.0033980251960932  0.9989147299175628  0.0096828800789458
  0.0161081978838334  0.9972089895990467  0.4909422858233198
  0.6450732311228105  0.3097857757383746  0.3309024753610186
  0.6700131142687920  0.3427355129562827  0.8392312320810330
  0.3187722957836189  0.6540019349725386  0.6675572665382083
  0.3772272119303391  0.6710395033645051  0.1647636498953315
  0.6719133216286065  0.9361484837463998  0.5751590291968404
  0.9997590350984724  0.5986852256746499  0.2478359401497661
  0.1842978024008367  0.9990789010420413  0.1899443639249730
  0.0025650328563769  0.1863015316839295  0.1896895686286489
  0.8131350709171661  0.8187382663180437  0.1889603000704404
  0.9988804245731883  0.1866604838133579  0.3126951809915485
  0.1902472449876432  0.0088993987737555  0.3125956524710631
  0.8179585345574060  0.8190302820016261  0.3118567743973314
  0.8156158573960857  0.9892543875334621  0.8037177354837387
  0.0064135811959695  0.8114462452679291  0.8127383492867294
  0.1865423074954514  0.1922937536846809  0.8115425858313289
  0.9899467092445470  0.8100266448306946  0.6914799347060284
  0.7929352556410425  0.9926607802956687  0.6814832802946664
  0.1802790676490961  0.1845466367413056  0.6901139060332921
  0.8563326151061652  0.3423783346665075  0.5222424310693221
  0.6544211833797225  0.5129830440570096  0.5233395526507751
  0.4765791639148354  0.1411434025543852  0.5217804250768754
  0.6657067933498855  0.5220856830434037  0.6450484139544109
  0.8563225679239653  0.3381829806154832  0.6438263704983324
  0.4755595852312440  0.1465336747857240  0.6431738958838402
  0.4873996735490504  0.3424213522056880  0.1429345455416575
  0.6723845015964882  0.1523363306695786  0.1419222991022383
  0.8801318724121520  0.5358789330833442  0.1526118328435482
  0.6708788090254659  0.1408939806852231  0.0212950230132360
  0.4690427278138119  0.3265209311790847  0.0222586272778409
  0.8443240613826227  0.5155428312192587  0.0312935745674339
  0.5220874207408089  0.6684860915442910  0.8551635389588546
  0.3326298983383708  0.8579468780111267  0.8552958749683268
  0.1455188662092264  0.4800172823673162  0.8563264099222785
  0.3365223651960500  0.8580899228424048  0.9765288580373986
  0.5194994862258131  0.6652276666316962  0.9768150455632014
  0.1440745764003536  0.4783326995040720  0.9779990173507832
  0.1585927599811356  0.6716336218584994  0.4689136508079095
  0.3382555231049422  0.4781443309069226  0.4753922739208305
  0.5474305298517126  0.8670642569807743  0.4856396948440289
  0.3261062205526027  0.4718467999097505  0.3549719102800733
  0.1216953235593845  0.6550229162215162  0.3478051441822517
  0.5071758607505302  0.8394501361660635  0.3645083591885283
  0.1842518836926953  0.1594049177934276  0.0826744005045292
  0.8471144545346463  0.0276444612626296  0.0804029397344101
  0.9759572261149734  0.8183340035946759  0.0821432231087265
  0.1574475904496443  0.1812362260741731  0.4214379247278318
  0.0279090113170570  0.8429788217015598  0.4187769239225811
  0.8205701809173918  0.9751001716612785  0.4196683232691369
  0.8117185307264113  0.8356622029555283  0.9209730551926729
  0.1680498971056030  0.9845157505840296  0.9218050455653451
  0.0116478690216419  0.1860609103456429  0.9203614319387258
  0.8303178631408145  0.8110553062836707  0.5767995226209059
  0.9563693393166401  0.1535279670348990  0.5766090248085116
  0.1826048836647848  0.0188183031187117  0.5771771980088852
  0.8491555408326056  0.5023488364259276  0.4134592217799894
  0.4980343058780595  0.3486248018795123  0.4092073423995514
  0.6471438000809910  0.1431443767515198  0.4124459978487212
  0.8249392893138675  0.5188400669993519  0.7572320323250531
  0.6914245537519400  0.1672070347721548  0.7539984894764605
  0.4747595517620653  0.3061002075801146  0.7544623542315918
  0.4802134865326787  0.1697890606001672  0.2547535443055237
  0.8349142517954654  0.3141530556182709  0.2553109874598837
  0.7089446097735679  0.5309004748977683  0.2556858353212564
  0.5089910063629370  0.1498836593599795  0.9110595202525192
  0.6411324972955331  0.4954600801952463  0.9117981985344557
  0.8557564928595829  0.3705930902544225  0.9124382191719927
  0.5131047273132050  0.8279706348568235  0.7431554136964160
  0.1648738898592278  0.6859951605658050  0.7429265540496217
  0.3077944848902631  0.4800938991076136  0.7433026878931999
  0.5054256943210423  0.8545494698106750  0.0891077906423171
  0.3548288463021392  0.5024336828233488  0.0887129154895100
  0.1525165864226409  0.6543217380898404  0.0868013679232922
  0.1489829261518007  0.4984067087763478  0.5869872170936253
  0.4988691884237585  0.6508128279068620  0.5891298899604895
  0.3614808952457799  0.8544606996080190  0.5882557059992851
  0.1645274009906164  0.4806797526508550  0.2456981935197735
  0.3030291495314476  0.8300549466927807  0.2474597140008677
  0.5243113380623078  0.6883823616773905  0.2467887116705270
  0.2826373281116423  0.0036244847675568  0.2510661044501025
  0.0000496734733165  0.2797541135034572  0.2508268180457546
  0.7231799642987559  0.7214720736763562  0.2507255389683241
  0.7051143137512205  0.9938075704893170  0.7466122988879555
  0.9973021510829988  0.7069396415137328  0.7520391742684226
  0.2872736139535223  0.2915820009408898  0.7507442250625124
  0.9548455116386330  0.3344850369651470  0.5824772089010176
  0.6618081274259547  0.6179654483036190  0.5835491612108887
  0.3741502352097808  0.0415173458669360  0.5825192908037423
  0.3695657770189438  0.3290991435664189  0.0841665426417273
  0.6775605336805248  0.0436001075997363  0.0832150865886924
  0.9616227538592816  0.6335738842969597  0.0884086926961871
  0.6219737527333058  0.6647820097821137  0.9166496061270161
  0.3374394398154819  0.9630690367398157  0.9165817883995953
  0.0400176705080521  0.3794969149057494  0.9173712483944098
  0.0400510433624354  0.6720692297952994  0.4110854172788544
  0.3261167357801334  0.3660532516137841  0.4142783510319587
  0.6334705988334633  0.9552447641770276  0.4193807161717397
 
  0.00000000E+00  0.00000000E+00  0.00000000E+00
  0.00000000E+00  0.00000000E+00  0.00000000E+00
  0.00000000E+00  0.00000000E+00  0.00000000E+00
  0.00000000E+00  0.00000000E+00  0.00000000E+00
  0.00000000E+00  0.00000000E+00  0.00000000E+00
  0.00000000E+00  0.00000000E+00  0.00000000E+00
  0.00000000E+00  0.00000000E+00  0.00000000E+00
  0.00000000E+00  0.00000000E+00  0.00000000E+00
  0.00000000E+00  0.00000000E+00  0.00000000E+00
  0.00000000E+00  0.00000000E+00  0.00000000E+00
  0.00000000E+00  0.00000000E+00  0.00000000E+00
  0.00000000E+00  0.00000000E+00  0.00000000E+00
  0.00000000E+00  0.00000000E+00  0.00000000E+00
  0.00000000E+00  0.00000000E+00  0.00000000E+00
  0.00000000E+00  0.00000000E+00  0.00000000E+00
  0.00000000E+00  0.00000000E+00  0.00000000E+00
  0.00000000E+00  0.00000000E+00  0.00000000E+00
  0.00000000E+00  0.00000000E+00  0.00000000E+00
  0.00000000E+00  0.00000000E+00  0.00000000E+00
  0.00000000E+00  0.00000000E+00  0.00000000E+00
  0.00000000E+00  0.00000000E+00  0.00000000E+00
  0.00000000E+00  0.00000000E+00  0.00000000E+00
  0.00000000E+00  0.00000000E+00  0.00000000E+00
  0.00000000E+00  0.00000000E+00  0.00000000E+00
  0.00000000E+00  0.00000000E+00  0.00000000E+00
  0.00000000E+00  0.00000000E+00  0.00000000E+00
  0.00000000E+00  0.00000000E+00  0.00000000E+00
  0.00000000E+00  0.00000000E+00  0.00000000E+00
  0.00000000E+00  0.00000000E+00  0.00000000E+00
  0.00000000E+00  0.00000000E+00  0.00000000E+00
  0.00000000E+00  0.00000000E+00  0.00000000E+00
  0.00000000E+00  0.00000000E+00  0.00000000E+00
  0.00000000E+00  0.00000000E+00  0.00000000E+00
  0.00000000E+00  0.00000000E+00  0.00000000E+00
  0.00000000E+00  0.00000000E+00  0.00000000E+00
  0.00000000E+00  0.00000000E+00  0.00000000E+00
  0.00000000E+00  0.00000000E+00  0.00000000E+00
  0.00000000E+00  0.00000000E+00  0.00000000E+00
  0.00000000E+00  0.00000000E+00  0.00000000E+00
  0.00000000E+00  0.00000000E+00  0.00000000E+00
  0.00000000E+00  0.00000000E+00  0.00000000E+00
  0.00000000E+00  0.00000000E+00  0.00000000E+00
  0.00000000E+00  0.00000000E+00  0.00000000E+00
  0.00000000E+00  0.00000000E+00  0.00000000E+00
  0.00000000E+00  0.00000000E+00  0.00000000E+00
  0.00000000E+00  0.00000000E+00  0.00000000E+00
  0.00000000E+00  0.00000000E+00  0.00000000E+00
  0.00000000E+00  0.00000000E+00  0.00000000E+00
  0.00000000E+00  0.00000000E+00  0.00000000E+00
  0.00000000E+00  0.00000000E+00  0.00000000E+00
  0.00000000E+00  0.00000000E+00  0.00000000E+00
  0.00000000E+00  0.00000000E+00  0.00000000E+00
  0.00000000E+00  0.00000000E+00  0.00000000E+00
  0.00000000E+00  0.00000000E+00  0.00000000E+00
  0.00000000E+00  0.00000000E+00  0.00000000E+00
  0.00000000E+00  0.00000000E+00  0.00000000E+00
  0.00000000E+00  0.00000000E+00  0.00000000E+00
  0.00000000E+00  0.00000000E+00  0.00000000E+00
  0.00000000E+00  0.00000000E+00  0.00000000E+00
  0.00000000E+00  0.00000000E+00  0.00000000E+00
  0.00000000E+00  0.00000000E+00  0.00000000E+00
  0.00000000E+00  0.00000000E+00  0.00000000E+00
  0.00000000E+00  0.00000000E+00  0.00000000E+00
  0.00000000E+00  0.00000000E+00  0.00000000E+00
  0.00000000E+00  0.00000000E+00  0.00000000E+00
  0.00000000E+00  0.00000000E+00  0.00000000E+00
  0.00000000E+00  0.00000000E+00  0.00000000E+00
  0.00000000E+00  0.00000000E+00  0.00000000E+00
  0.00000000E+00  0.00000000E+00  0.00000000E+00
  0.00000000E+00  0.00000000E+00  0.00000000E+00
  0.00000000E+00  0.00000000E+00  0.00000000E+00
  0.00000000E+00  0.00000000E+00  0.00000000E+00
  0.00000000E+00  0.00000000E+00  0.00000000E+00
  0.00000000E+00  0.00000000E+00  0.00000000E+00
  0.00000000E+00  0.00000000E+00  0.00000000E+00
  0.00000000E+00  0.00000000E+00  0.00000000E+00
  0.00000000E+00  0.00000000E+00  0.00000000E+00
  0.00000000E+00  0.00000000E+00  0.00000000E+00
  0.00000000E+00  0.00000000E+00  0.00000000E+00
  0.00000000E+00  0.00000000E+00  0.00000000E+00
  0.00000000E+00  0.00000000E+00  0.00000000E+00
  0.00000000E+00  0.00000000E+00  0.00000000E+00
  0.00000000E+00  0.00000000E+00  0.00000000E+00
  0.00000000E+00  0.00000000E+00  0.00000000E+00
  0.00000000E+00  0.00000000E+00  0.00000000E+00
  0.00000000E+00  0.00000000E+00  0.00000000E+00
  0.00000000E+00  0.00000000E+00  0.00000000E+00
  0.00000000E+00  0.00000000E+00  0.00000000E+00
  0.00000000E+00  0.00000000E+00  0.00000000E+00
  0.00000000E+00  0.00000000E+00  0.00000000E+00
  0.00000000E+00  0.00000000E+00  0.00000000E+00
  0.00000000E+00  0.00000000E+00  0.00000000E+00
  0.00000000E+00  0.00000000E+00  0.00000000E+00
  0.00000000E+00  0.00000000E+00  0.00000000E+00
  0.00000000E+00  0.00000000E+00  0.00000000E+00
  0.00000000E+00  0.00000000E+00  0.00000000E+00
  0.00000000E+00  0.00000000E+00  0.00000000E+00
  0.00000000E+00  0.00000000E+00  0.00000000E+00
  0.00000000E+00  0.00000000E+00  0.00000000E+00
  0.00000000E+00  0.00000000E+00  0.00000000E+00
  0.00000000E+00  0.00000000E+00  0.00000000E+00
  0.00000000E+00  0.00000000E+00  0.00000000E+00
  0.00000000E+00  0.00000000E+00  0.00000000E+00
  0.00000000E+00  0.00000000E+00  0.00000000E+00
  0.00000000E+00  0.00000000E+00  0.00000000E+00
  0.00000000E+00  0.00000000E+00  0.00000000E+00
  0.00000000E+00  0.00000000E+00  0.00000000E+00
  0.00000000E+00  0.00000000E+00  0.00000000E+00
  0.00000000E+00  0.00000000E+00  0.00000000E+00
  0.00000000E+00  0.00000000E+00  0.00000000E+00
